
Gurobi 9.1.2 (linux64, gurobi_cl) logging started Fri Jul 30 13:52:50 2021

Using license file /opt/gurobi/gurobi.lic
Set parameter TimeLimit to value 600
Set parameter MIPFocus to value 1
Set parameter LogFile to value 912-MIPFocus1-glass4-0.log

Gurobi Optimizer version 9.1.2 build v9.1.2rc0 (linux64)
Copyright (c) 2021, Gurobi Optimization, LLC

Read MPS format model from file /nfs/models/mip/glass4.mps.bz2
Reading time = 0.00 seconds
glass4: 396 rows, 322 columns, 1815 nonzeros
Thread count: 4 physical cores, 8 logical processors, using up to 8 threads
Optimize a model with 396 rows, 322 columns and 1815 nonzeros
Model fingerprint: 0x0a9d9037
Variable types: 20 continuous, 302 integer (0 binary)
Coefficient statistics:
  Matrix range     [1e+00, 8e+06]
  Objective range  [1e+00, 1e+06]
  Bounds range     [1e+00, 8e+02]
  RHS range        [1e+00, 8e+06]
Presolve removed 6 rows and 6 columns
Presolve time: 0.00s
Presolved: 390 rows, 316 columns, 1803 nonzeros
Variable types: 19 continuous, 297 integer (297 binary)
Found heuristic solution: objective 3.133356e+09

Root relaxation: objective 8.000024e+08, 72 iterations, 0.00 seconds

    Nodes    |    Current Node    |     Objective Bounds      |     Work
 Expl Unexpl |  Obj  Depth IntInf | Incumbent    BestBd   Gap | It/Node Time

     0     0 8.0000e+08    0   72 3.1334e+09 8.0000e+08  74.5%     -    0s
H    0     0                    2.200019e+09 8.0000e+08  63.6%     -    0s
H    0     0                    2.000016e+09 8.0000e+08  60.0%     -    0s
     0     0 8.0000e+08    0   72 2.0000e+09 8.0000e+08  60.0%     -    0s
     0     0 8.0000e+08    0   72 2.0000e+09 8.0000e+08  60.0%     -    0s
     0     0 8.0000e+08    0   79 2.0000e+09 8.0000e+08  60.0%     -    0s
     0     0 8.0000e+08    0   79 2.0000e+09 8.0000e+08  60.0%     -    0s
     0     0 8.0000e+08    0  107 2.0000e+09 8.0000e+08  60.0%     -    0s
     0     0 8.0000e+08    0   85 2.0000e+09 8.0000e+08  60.0%     -    0s
     0     0 8.0000e+08    0   94 2.0000e+09 8.0000e+08  60.0%     -    0s
     0     0 8.0000e+08    0   86 2.0000e+09 8.0000e+08  60.0%     -    0s
     0     0 8.0000e+08    0   81 2.0000e+09 8.0000e+08  60.0%     -    0s
     0     0 8.0000e+08    0   93 2.0000e+09 8.0000e+08  60.0%     -    0s
     0     0 8.0000e+08    0   69 2.0000e+09 8.0000e+08  60.0%     -    0s
H    0     0                    1.900016e+09 8.0000e+08  57.9%     -    0s
     0     2 8.0000e+08    0   67 1.9000e+09 8.0000e+08  57.9%     -    0s
H  120   210                    1.900016e+09 8.0000e+08  57.9%   9.9    0s
H  204   210                    1.877793e+09 8.0000e+08  57.4%   8.2    0s
H  300   373                    1.875015e+09 8.0000e+08  57.3%   7.5    0s
H  304   373                    1.866683e+09 8.0001e+08  57.1%   7.5    0s
H  374   373                    1.855571e+09 8.0001e+08  56.9%   7.4    0s
H  378   373                    1.825015e+09 8.0001e+08  56.2%   7.3    0s
H  435   584                    1.800016e+09 8.0001e+08  55.6%   7.3    1s
H  501   583                    1.775015e+09 8.0001e+08  54.9%   7.7    1s
H  629   582                    1.750015e+09 8.0001e+08  54.3%   7.4    1s
H  701   695                    1.737515e+09 8.0001e+08  54.0%   7.3    1s
H  900   969                    1.700014e+09 8.0001e+08  52.9%   7.1    1s
H 1514  1085                    1.700004e+09 8.0001e+08  52.9%  12.4    3s
H 1522  1044                    1.700002e+09 8.0001e+08  52.9%  12.5    3s
H 1589  1038                    1.700000e+09 8.0001e+08  52.9%  12.5    3s
H 1687  1040                    1.666680e+09 8.0001e+08  52.0%  12.7    4s
H 1759  1028                    1.633347e+09 8.0001e+08  51.0%  13.2    4s
  1860  1060 1.4333e+09   49   33 1.6333e+09 8.0001e+08  51.0%  13.5    5s
H 1870  1026                    1.600015e+09 8.0001e+08  50.0%  13.7    5s
H 2659  1252                    1.600015e+09 8.0001e+08  50.0%  17.4    8s
  3597  1746 9.0001e+08   27   57 1.6000e+09 9.0000e+08  43.8%  19.3   10s
H 4778  2403                    1.500013e+09 9.0001e+08  40.0%  20.5   13s
H 5100  2779                    1.500013e+09 9.0001e+08  40.0%  20.8   14s
  6654  3676 1.4333e+09   25   46 1.5000e+09 9.0001e+08  40.0%  22.4   15s
 10354  5761 9.1522e+08   27   61 1.5000e+09 9.0001e+08  40.0%  24.5   20s
H12200  6721                    1.500013e+09 9.0001e+08  40.0%  24.9   22s
H12900  7105                    1.500013e+09 9.0001e+08  40.0%  25.2   23s
H13061  7100                    1.500012e+09 9.0001e+08  40.0%  25.1   23s
H13625  6727                    1.450012e+09 9.0001e+08  37.9%  25.3   24s
 14445  7285 1.2000e+09   31   61 1.4500e+09 9.0001e+08  37.9%  25.4   25s
 19176  9227 infeasible   35      1.4500e+09 9.0001e+08  37.9%  28.5   30s
 24334 11691 1.0000e+09   54   51 1.4500e+09 9.0001e+08  37.9%  29.6   35s
H27706 12902                    1.400013e+09 9.0001e+08  35.7%  30.0   39s
 28821 13421 infeasible   31      1.4000e+09 9.0001e+08  35.7%  30.1   41s
 34913 15533 infeasible   43      1.4000e+09 9.0001e+08  35.7%  30.9   45s
 40180 17448 1.1000e+09   33   71 1.4000e+09 9.0001e+08  35.7%  31.4   50s
 46630 19731 infeasible   39      1.4000e+09 9.0001e+08  35.7%  32.0   55s
 52560 21752 infeasible   61      1.4000e+09 9.0001e+08  35.7%  32.3   61s
H55280 20955                    1.350013e+09 9.0001e+08  33.3%  32.4   63s
H55691 17840                    1.200013e+09 9.0001e+08  25.0%  32.4   63s
 56764 17020 infeasible   40      1.2000e+09 9.0001e+08  25.0%  33.0   65s
 65852 12485 infeasible   28      1.2000e+09 9.0338e+08  24.7%  35.2   70s
 73227 10421 1.0000e+09   41   38 1.2000e+09 1.0000e+09  16.7%  36.5   75s

Cutting planes:
  Gomory: 51
  Cover: 10
  Implied bound: 39
  MIR: 66
  Flow cover: 375
  GUB cover: 1
  RLT: 195
  Relax-and-lift: 153

Explored 86742 nodes (3068705 simplex iterations) in 78.77 seconds
Thread count was 8 (of 8 available processors)

Solution count 10: 1.20001e+09 1.35001e+09 1.40001e+09 ... 1.60001e+09

Optimal solution found (tolerance 1.00e-04)
Best objective 1.200012600000e+09, best bound 1.200003800000e+09, gap 0.0007%
